p tw 580 8701 7 
1 8 
1 191 
2 9 
2 10 
2 192 
3 7 
3 10 
3 411 
4 8 
4 9 
4 412 
5 7 
5 9 
5 431 
6 8 
6 10 
6 432 
11 17 
11 18 
11 121 
12 19 
12 20 
12 122 
13 17 
13 20 
13 231 
14 18 
14 19 
14 232 
15 17 
15 19 
15 281 
16 18 
16 20 
16 282 
21 27 
21 28 
21 211 
22 29 
22 30 
22 212 
23 27 
23 30 
23 301 
24 28 
24 29 
24 302 
25 27 
25 29 
25 401 
26 28 
26 30 
26 402 
31 37 
31 38 
31 351 
32 39 
32 40 
32 352 
33 37 
33 40 
33 521 
34 38 
34 39 
34 522 
35 37 
35 39 
35 551 
36 38 
36 40 
36 552 
41 47 
41 48 
41 61 
42 49 
42 50 
42 62 
43 47 
43 50 
43 161 
44 48 
44 49 
44 162 
45 47 
45 49 
45 403 
46 48 
46 50 
46 404 
51 57 
51 58 
51 81 
52 59 
52 60 
52 82 
53 57 
53 60 
53 213 
54 58 
54 59 
54 214 
55 57 
55 59 
55 541 
56 58 
56 60 
56 542 
61 67 
61 68 
62 69 
62 70 
63 67 
63 70 
63 421 
64 68 
64 69 
64 422 
65 67 
65 69 
65 491 
66 68 
66 70 
66 492 
71 77 
71 78 
71 201 
72 79 
72 80 
72 202 
73 77 
73 80 
73 241 
74 78 
74 79 
74 242 
75 77 
75 79 
75 481 
76 78 
76 80 
76 482 
81 87 
81 88 
82 89 
82 90 
83 87 
83 90 
83 251 
84 88 
84 89 
84 252 
85 87 
85 89 
85 291 
86 88 
86 90 
86 292 
91 97 
91 98 
91 271 
92 99 
92 100 
92 272 
93 97 
93 100 
93 321 
94 98 
94 99 
94 322 
95 97 
95 99 
95 501 
96 98 
96 100 
96 502 
101 107 
101 108 
101 171 
102 109 
102 110 
102 172 
103 107 
103 110 
103 181 
104 108 
104 109 
104 182 
105 107 
105 109 
105 193 
106 108 
106 110 
106 194 
111 117 
111 118 
111 283 
112 119 
112 120 
112 284 
113 117 
113 120 
113 341 
114 118 
114 119 
114 342 
115 117 
115 119 
115 361 
116 118 
116 120 
116 362 
121 127 
121 128 
122 129 
122 130 
123 127 
123 130 
123 451 
124 128 
124 129 
124 452 
125 127 
125 129 
125 511 
126 128 
126 130 
126 512 
131 137 
131 138 
131 433 
132 139 
132 140 
132 434 
133 137 
133 140 
133 471 
134 138 
134 139 
134 472 
135 137 
135 139 
135 483 
136 138 
136 140 
136 484 
141 147 
141 148 
141 391 
142 149 
142 150 
142 392 
143 147 
143 150 
143 493 
144 148 
144 149 
144 494 
145 147 
145 149 
145 531 
146 148 
146 150 
146 532 
151 157 
151 158 
151 371 
152 159 
152 160 
152 372 
153 157 
153 160 
153 405 
154 158 
154 159 
154 406 
155 157 
155 159 
155 423 
156 158 
156 160 
156 424 
161 167 
161 168 
162 169 
162 170 
163 167 
163 170 
163 243 
164 168 
164 169 
164 244 
165 167 
165 169 
165 381 
166 168 
166 170 
166 382 
171 177 
171 178 
172 179 
172 180 
173 177 
173 180 
173 273 
174 178 
174 179 
174 274 
175 177 
175 179 
175 393 
176 178 
176 180 
176 394 
181 187 
181 188 
182 189 
182 190 
183 187 
183 190 
183 495 
184 188 
184 189 
184 496 
185 187 
185 189 
185 523 
186 188 
186 190 
186 524 
191 197 
191 198 
192 199 
192 200 
193 197 
193 200 
194 198 
194 199 
195 197 
195 199 
195 363 
196 198 
196 200 
196 364 
201 207 
201 208 
202 209 
202 210 
203 207 
203 210 
203 435 
204 208 
204 209 
204 436 
205 207 
205 209 
205 543 
206 208 
206 210 
206 544 
211 217 
211 218 
212 219 
212 220 
213 217 
213 220 
214 218 
214 219 
215 217 
215 219 
215 245 
216 218 
216 220 
216 246 
221 227 
221 228 
221 413 
222 229 
222 230 
222 414 
223 227 
223 230 
223 453 
224 228 
224 229 
224 454 
225 227 
225 229 
225 461 
226 228 
226 230 
226 462 
231 237 
231 238 
232 239 
232 240 
233 237 
233 240 
233 343 
234 238 
234 239 
234 344 
235 237 
235 239 
235 561 
236 238 
236 240 
236 562 
241 247 
241 248 
242 249 
242 250 
243 247 
243 250 
244 248 
244 249 
245 247 
245 249 
246 248 
246 250 
251 257 
251 258 
252 259 
252 260 
253 257 
253 260 
253 533 
254 258 
254 259 
254 534 
255 257 
255 259 
255 553 
256 258 
256 260 
256 554 
261 267 
261 268 
261 303 
262 269 
262 270 
262 304 
263 267 
263 270 
263 395 
264 268 
264 269 
264 396 
265 267 
265 269 
265 503 
266 268 
266 270 
266 504 
271 277 
271 278 
272 279 
272 280 
273 277 
273 280 
274 278 
274 279 
275 277 
275 279 
275 473 
276 278 
276 280 
276 474 
281 287 
281 288 
282 289 
282 290 
283 287 
283 290 
284 288 
284 289 
285 287 
285 289 
285 545 
286 288 
286 290 
286 546 
291 297 
291 298 
292 299 
292 300 
293 297 
293 300 
293 513 
294 298 
294 299 
294 514 
295 297 
295 299 
295 571 
296 298 
296 300 
296 572 
301 307 
301 308 
302 309 
302 310 
303 307 
303 310 
304 308 
304 309 
305 307 
305 309 
305 311 
306 308 
306 310 
306 312 
311 317 
311 318 
312 319 
312 320 
313 317 
313 320 
313 425 
314 318 
314 319 
314 426 
315 317 
315 319 
315 441 
316 318 
316 320 
316 442 
321 327 
321 328 
322 329 
322 330 
323 327 
323 330 
323 353 
324 328 
324 329 
324 354 
325 327 
325 329 
325 563 
326 328 
326 330 
326 564 
331 337 
331 338 
331 415 
332 339 
332 340 
332 416 
333 337 
333 340 
333 463 
334 338 
334 339 
334 464 
335 337 
335 339 
335 535 
336 338 
336 340 
336 536 
341 347 
341 348 
342 349 
342 350 
343 347 
343 350 
344 348 
344 349 
345 347 
345 349 
345 505 
346 348 
346 350 
346 506 
351 357 
351 358 
352 359 
352 360 
353 357 
353 360 
354 358 
354 359 
355 357 
355 359 
355 443 
356 358 
356 360 
356 444 
361 367 
361 368 
362 369 
362 370 
363 367 
363 370 
364 368 
364 369 
365 367 
365 369 
365 555 
366 368 
366 370 
366 556 
371 377 
371 378 
372 379 
372 380 
373 377 
373 380 
373 455 
374 378 
374 379 
374 456 
375 377 
375 379 
375 515 
376 378 
376 380 
376 516 
381 387 
381 388 
382 389 
382 390 
383 387 
383 390 
383 565 
384 388 
384 389 
384 566 
385 387 
385 389 
385 573 
386 388 
386 390 
386 574 
391 397 
391 398 
392 399 
392 400 
393 397 
393 400 
394 398 
394 399 
395 397 
395 399 
396 398 
396 400 
401 407 
401 408 
402 409 
402 410 
403 407 
403 410 
404 408 
404 409 
405 407 
405 409 
406 408 
406 410 
411 417 
411 418 
412 419 
412 420 
413 417 
413 420 
414 418 
414 419 
415 417 
415 419 
416 418 
416 420 
421 427 
421 428 
422 429 
422 430 
423 427 
423 430 
424 428 
424 429 
425 427 
425 429 
426 428 
426 430 
431 437 
431 438 
432 439 
432 440 
433 437 
433 440 
434 438 
434 439 
435 437 
435 439 
436 438 
436 440 
441 447 
441 448 
442 449 
442 450 
443 447 
443 450 
444 448 
444 449 
445 447 
445 449 
445 465 
446 448 
446 450 
446 466 
451 457 
451 458 
452 459 
452 460 
453 457 
453 460 
454 458 
454 459 
455 457 
455 459 
456 458 
456 460 
461 467 
461 468 
462 469 
462 470 
463 467 
463 470 
464 468 
464 469 
465 467 
465 469 
466 468 
466 470 
471 477 
471 478 
472 479 
472 480 
473 477 
473 480 
474 478 
474 479 
475 477 
475 479 
475 525 
476 478 
476 480 
476 526 
481 487 
481 488 
482 489 
482 490 
483 487 
483 490 
484 488 
484 489 
485 487 
485 489 
485 575 
486 488 
486 490 
486 576 
491 497 
491 498 
492 499 
492 500 
493 497 
493 500 
494 498 
494 499 
495 497 
495 499 
496 498 
496 500 
501 507 
501 508 
502 509 
502 510 
503 507 
503 510 
504 508 
504 509 
505 507 
505 509 
506 508 
506 510 
511 517 
511 518 
512 519 
512 520 
513 517 
513 520 
514 518 
514 519 
515 517 
515 519 
516 518 
516 520 
521 527 
521 528 
522 529 
522 530 
523 527 
523 530 
524 528 
524 529 
525 527 
525 529 
526 528 
526 530 
531 537 
531 538 
532 539 
532 540 
533 537 
533 540 
534 538 
534 539 
535 537 
535 539 
536 538 
536 540 
541 547 
541 548 
542 549 
542 550 
543 547 
543 550 
544 548 
544 549 
545 547 
545 549 
546 548 
546 550 
551 557 
551 558 
552 559 
552 560 
553 557 
553 560 
554 558 
554 559 
555 557 
555 559 
556 558 
556 560 
561 567 
561 568 
562 569 
562 570 
563 567 
563 570 
564 568 
564 569 
565 567 
565 569 
566 568 
566 570 
571 577 
571 578 
572 579 
572 580 
573 577 
573 580 
574 578 
574 579 
575 577 
575 579 
576 578 
576 580 
